<instance format="XCSP3" type="CSP">
  <variables>
    <var id="x0"> 6 10 13 </var>
    <var id="x1"> 1 4 6 </var>
    <var id="x2"> 4 9 10 </var>
    <var id="x3"> 1 6 9 </var>
    <var id="x4"> 1 6 9 10 13 </var>
    <var id="x5"> 3 4 9 </var>
    <var id="x6"> 1 4 6 </var>
    <var id="x7"> 0 1 4 5 8 </var>
    <var id="x8"> 0 1 6 8 11 </var>
    <var id="x9"> 1 5 6 11 </var>
    <var id="x10"> 0 4..6 </var>
    <var id="x11"> 0 1 4 6 11 </var>
    <var id="x12"> 0 1 6 8 </var>
    <var id="x13"> 0 1 4 6 </var>
    <var id="x14"> 0 1 4 8 10 </var>
    <var id="x15"> 10 12 </var>
    <var id="x16"> 1 9 </var>
    <var id="x17"> 0 4 12 </var>
    <var id="x18"> 0 4 9 10 </var>
    <var id="x19"> 0 1 8..10 </var>
    <var id="x20"> 1 4 8 12 </var>
    <var id="x21"> 1 7 8 10 </var>
    <var id="x22"> 1 6..9 </var>
    <var id="x23"> 1 6 10 </var>
    <var id="x24"> 1 6 8..10 </var>
    <var id="x25"> 1 7 8 </var>
    <var id="x26"> 2 8 9 </var>
    <var id="x27"> 1 2 6 7 </var>
    <var id="x28"> 1 5 </var>
    <var id="x29"> 5 6 11 12 </var>
    <var id="x30"> 1 6 11 </var>
    <var id="x31"> 5 6 12 </var>
    <var id="x32"> 2 11 </var>
    <var id="x33"> 1 3 12 </var>
    <var id="x34"> 1 2 5 11 12 </var>
    <var id="x35"> 0 5 7 </var>
    <var id="x36"> 0 6 11 </var>
    <var id="x37"> 0 6 7 9 11 </var>
    <var id="x38"> 0 5..7 12 </var>
    <var id="x39"> 0 9 11 </var>
    <var id="x40"> 5..7 9 12 </var>
    <var id="x41"> 0 6 9 </var>
    <var id="x42"> 0 8 </var>
    <var id="x43"> 0 8 13 </var>
    <var id="x44"> 0 4 12 </var>
    <var id="x45"> 4 5 </var>
    <var id="x46"> 4 8 12 13 </var>
    <var id="x47"> 0 2 4 8 </var>
    <var id="x48"> 2 5 12 13 </var>
    <var id="x49"> 0 1 4 7 10 </var>
    <var id="x50"> 0 10 11 </var>
    <var id="x51"> 0 1 7 9 11 </var>
    <var id="x52"> 0 4 7 </var>
    <var id="x53"> 1 4 10 11 </var>
    <var id="x54"> 1 7 9 </var>
    <var id="x55"> 0 1 9 10 </var>
    <var id="x56"> 6 7 11 </var>
    <var id="x57"> 6 8 11 </var>
    <var id="x58"> 1 6 7 9 11 </var>
    <var id="x59"> 1 4 6 7 11 </var>
    <var id="x60"> 1 4 7 8 </var>
    <var id="x61"> 4 8 9 </var>
    <var id="x62"> 1 9 11 </var>
    <var id="x63"> 5 7 11 13 </var>
    <var id="x64"> 1 3 5 7 9 11 </var>
    <var id="x65"> 5 7 13 </var>
    <var id="x66"> 1 3 5 11 </var>
    <var id="x67"> 1 5 7 9 </var>
    <var id="x68"> 1 5 9 11 13 </var>
    <var id="x69"> 1 7 </var>
    <var id="x70"> 5 6 11..13 </var>
    <var id="x71"> 0 6 11 13 </var>
    <var id="x72"> 5 6 11 </var>
    <var id="x73"> 0 4 11 </var>
    <var id="x74"> 0 6 13 </var>
    <var id="x75"> 4 12 13 </var>
    <var id="x76"> 0 4 </var>
    <var id="x77"> 0 1 4 7 </var>
    <var id="x78"> 6 7 </var>
    <var id="x79"> 0 3 6 14 </var>
    <var id="x80"> 0 4 6 7 </var>
    <var id="x81"> 0 4 14 </var>
    <var id="x82"> 1 3 4 6 </var>
    <var id="x83"> 0 1 4 6 7 14 </var>
    <var id="x84"> 6..8 13 </var>
    <var id="x85"> 6 7 </var>
    <var id="x86"> 2 10 14 </var>
    <var id="x87"> 6 10 </var>
    <var id="x88"> 6..8 </var>
    <var id="x89"> 2 8 14 </var>
    <var id="x90"> 2 13 </var>
    <var id="x91"> 0 3 8 14 </var>
    <var id="x92"> 3 5 7 </var>
    <var id="x93"> 0 7 12 </var>
    <var id="x94"> 3 5 </var>
    <var id="x95"> 5 7 8 12 </var>
    <var id="x96"> 0 3 8 14 </var>
    <var id="x97"> 5 12 13 </var>
    <var id="x98"> 0 7 14 </var>
    <var id="x99"> 0 6 10 11 14 </var>
    <var id="x100"> 1 6 7 11 </var>
    <var id="x101"> 0 1 6 7 11 </var>
    <var id="x102"> 1 6 7 </var>
    <var id="x103"> 1 7 </var>
    <var id="x104"> 1 11 </var>
    <var id="x105"> 0 1 6 7 14 </var>
  </variables>
  <constraints>
    <group>
      <allDifferent> %... </allDifferent>
      <args> x0 x1 x2 x3 x4 x5 x6 </args>
      <args> x7 x8 x9 x10 x11 x12 x13 </args>
      <args> x14 x15 x16 x17 x18 x19 x20 </args>
      <args> x21 x22 x23 x24 x25 x26 x27 </args>
      <args> x28 x29 x30 x31 x32 x33 x34 </args>
      <args> x35 x36 x37 x38 x39 x40 x41 </args>
      <args> x42 x43 x44 x45 x46 x47 x48 </args>
      <args> x49 x50 x51 x52 x53 x54 x55 </args>
      <args> x56 x57 x58 x59 x60 x61 x62 </args>
      <args> x63 x64 x65 x66 x67 x68 x69 </args>
      <args> x70 x71 x72 x73 x74 x75 x76 </args>
      <args> x77 x78 x79 x80 x81 x82 x83 </args>
      <args> x84 x85 x86 x87 x88 x89 x90 </args>
      <args> x91 x92 x93 x94 x95 x96 x97 x98 </args>
      <args> x99 x100 x101 x102 x103 x104 x105 </args>
      <args> x7 x14 x21 x28 x35 x49 x77 </args>
      <args> x0 x15 x29 x56 x63 x70 x78 </args>
      <args> x36 x42 x50 x57 x79 x91 x99 </args>
      <args> x8 x22 x30 x37 x43 x51 x71 x84 </args>
      <args> x9 x16 x58 x64 x72 x92 x100 </args>
      <args> x10 x17 x31 x38 x52 x65 x80 </args>
      <args> x1 x11 x44 x59 x85 x93 x101 </args>
      <args> x2 x18 x32 x39 x73 x81 x86 </args>
      <args> x23 x45 x53 x66 x82 x87 x94 </args>
      <args> x3 x40 x54 x67 x88 x95 x102 </args>
      <args> x4 x12 x19 x24 x41 x55 x74 </args>
      <args> x20 x25 x33 x46 x60 x75 x103 </args>
      <args> x5 x26 x47 x61 x76 x89 x96 </args>
      <args> x34 x48 x62 x68 x90 x97 x104 </args>
      <args> x6 x13 x27 x69 x83 x98 x105 </args>
    </group>
  </constraints>
</instance>

